c ---- [ banner ] ------------------------------------------------------------
c
c KISSAT SAT Solver
c Copyright (c) 2019-2021 Armin Biere JKU Linz
c 
c Version 2.0.1 02cd69626a53e93e09286b1978ccb5d6bec58b8e
c Apple clang version 13.1.6 (clang-1316.0.21.2) -W -Wall -O3 -DNDEBUG
c Thu Mar 31 15:34:51 EDT 2022 Darwin Randals-Macbook-Pro.local 21.2.0 arm64
c
c ---- [ proving ] -----------------------------------------------------------
c
c opened and writing proof to DRAT file:
c
c   chess-016.drat
c
c ---- [ parsing ] -----------------------------------------------------------
c
c opened and reading DIMACS file:
c
c   chess-016.cnf
c
c parsed 'p cnf 476 1592' header
c closing input after reading 33765 bytes (33 KB)
c finished parsing after 0.00 seconds
c
c ---- [ options ] -----------------------------------------------------------
c
c --stable=0                       (different from default '1')
c
c ---- [ solving ] -----------------------------------------------------------
c
c  seconds switched rate      trail    variables
c         MB reductions conflicts glue     remaining
c          level restarts redundant irredundant
c
c *  0.00  0 0 0 0  0 0   0   0 0% 0 1592 476 100%
c {  0.00  0 0 0 0  0 0   0   0 0% 0 1592 476 100%
c -  0.00  0 72 0 1 49 10 300 203 79% 5 1592 476 100%
c d  0.01  0 66 0 1 173 13 1028 835 74% 5 1580 470 99%
c u  0.01  0 66 0 1 173 13 1096 820 74% 5 1580 470 99%
c v  0.01  0 66 0 1 173 13 1148 806 74% 5 1580 470 99%
c -  0.01  0 65 0 2 222 14 1301 772 73% 6 1580 470 99%
c t  0.02  0 63 0 2 371 13 2173 1591 74% 6 1578 470 99%
c u  0.02  0 63 0 2 371 13 2225 1574 74% 6 1578 470 99%
c v  0.02  0 63 0 2 371 13 2281 1564 74% 6 1578 470 99%
c -  0.03  0 63 0 3 419 12 2715 1555 74% 6 1578 470 99%
c t  0.05  0 60 0 3 822 14 4415 3152 72% 6 1574 470 99%
c u  0.05  0 60 0 3 822 14 4514 3132 72% 6 1574 470 99%
c v  0.05  0 60 0 3 822 14 4631 3103 72% 6 1574 470 99%
c -  0.05  0 60 0 4 822 14 4634 2389 72% 6 1574 470 99%
c e  0.06  0 60 0 4 928 14 5134 2864 71% 6 1299 311 65%
c e  0.06  0 60 0 4 928 14 5134 2864 71% 6 1294 309 65%
c -  0.08  0 61 0 5 977 11 6634 1209 74% 6 1294 309 65%
c u  0.09  0 60 0 5 1073 10 8030 2318 74% 6 1294 309 65%
c v  0.09  0 60 0 5 1073 10 8128 2297 74% 6 1294 309 65%
c
c  seconds  switched    rate         trail    variables
c         MB reductions  conflicts      glue      remaining
c          level  restarts    redundant irredundant
c
c w  0.09  0 60 0 5 1073 10 8134 2297 74% 6 1294 309 65%
c -  0.10  0 59 0 6 1106 10 8871 2327 75% 6 1294 309 65%
c ^  0.11  0 57 0 6 1219 9 9987 3335 75% 6 1294 309 65%
c -  0.12  0 56 0 7 1416 9 11320 3436 74% 7 1294 309 65%
c u  0.14  0 55 0 7 1606 9 12616 4413 73% 7 1294 309 65%
c v  0.14  0 55 0 7 1606 9 12723 4347 73% 7 1294 309 65%
c -  0.16  0 53 0 8 1792 9 13965 4061 72% 7 1294 309 65%
c -  0.20  0 52 0 9 2225 9 16793 4848 71% 7 1294 309 65%
c 3  0.22  0 50 0 9 2384 9 18302 6229 71% 7 1294 309 65%
c u  0.22  0 50 0 9 2384 9 18490 6157 71% 7 1294 309 65%
c v  0.22  0 50 0 9 2384 9 18629 6100 71% 7 1294 309 65%
c -  0.24  0 49 0 10 2582 9 19794 5362 70% 7 1294 309 65%
c e  0.26  0 49 0 10 2735 9 20507 6020 70% 7 1291 306 64%
c ^  0.26  0 49 0 10 2735 9 20507 6020 70% 7 1291 306 64%
c -  0.30  0 48 0 11 3142 9 22958 6105 69% 7 1291 306 64%
c u  0.34  0 47 0 11 3554 9 25780 8314 69% 7 1291 306 64%
c v  0.34  0 47 0 11 3554 9 25983 8221 69% 7 1291 306 64%
c w  0.34  0 47 0 11 3554 9 26021 8221 69% 7 1290 306 64%
c -  0.35  0 47 0 12 3576 9 26275 6339 69% 7 1290 306 64%
c -  0.40  0 45 0 13 3928 8 29739 7124 68% 7 1290 306 64%
c
c  seconds  switched    rate          trail    variables
c         MB  reductions  conflicts      glue      remaining
c          level   restarts    redundant irredundant
c
c -  0.46  0 44 0 14 4308 8 33344 7844 67% 7 1290 306 64%
c u  0.47  0 44 0 14 4435 8 34450 8501 67% 7 1290 306 64%
c v  0.48  0 44 0 14 4435 8 34649 8408 67% 7 1290 306 64%
c -  0.52  0 44 0 15 4696 8 37086 7957 67% 7 1290 306 64%
c e  0.53  0 44 0 15 4764 8 37440 8274 67% 7 1287 299 63%
c e  0.53  0 44 0 15 4764 8 37440 8274 67% 7 1289 297 62%
c -  0.59  0 43 0 16 5214 8 40958 7772 66% 7 1289 297 62%
c 3  0.64  0 42 0 16 5577 7 44230 10653 66% 8 1289 297 62%
c u  0.64  0 42 0 16 5577 7 44500 10515 66% 8 1289 297 62%
c v  0.65  0 42 0 16 5577 7 44742 10425 66% 8 1289 297 62%
c w  0.65  0 42 0 16 5577 7 44779 10425 66% 8 1288 297 62%
c -  0.66  0 42 0 17 5593 7 44958 8202 66% 8 1288 297 62%
c -  0.73  0 41 0 18 6064 7 49081 9086 66% 8 1288 297 62%
c -  0.81  0 41 0 19 6702 7 53324 9791 65% 8 1288 297 62%
c 3  0.85  0 41 0 19 7015 7 55722 11956 65% 8 1288 297 62%
c u  0.86  0 41 0 19 7015 7 56021 11825 65% 8 1288 297 62%
c v  0.86  0 41 0 19 7015 7 56331 11661 65% 8 1288 297 62%
c -  0.90  0 40 0 20 7187 7 57683 9774 65% 8 1288 297 62%
c ^  0.97  0 40 0 20 7710 7 61492 13228 64% 8 1288 297 62%
c -  0.99  0 39 0 21 7809 7 62158 10495 64% 8 1288 297 62%
c
c  seconds  switched    rate           trail    variables
c         MB  reductions  conflicts       glue      remaining
c          level   restarts     redundant irredundant
c
c -  1.07  0 39 0 22 8487 7 66740 11101 64% 8 1288 297 62%
c 3  1.11  0 39 0 22 8732 7 68763 12943 64% 8 1288 297 62%
c u  1.12  0 39 0 22 8732 7 69140 12817 64% 8 1288 297 62%
c v  1.12  0 39 0 22 8732 7 69384 12702 64% 8 1288 297 62%
c -  1.17  0 39 0 23 8971 7 71432 11138 64% 8 1288 297 62%
c -  1.26  0 38 0 24 9399 7 76228 12002 63% 8 1288 297 62%
c -  1.36  0 38 0 25 9951 7 81129 12725 63% 8 1288 297 62%
c 3  1.40  0 37 0 25 10181 6 83306 14692 63% 8 1288 297 62%
c u  1.41  0 37 0 25 10181 6 83670 14540 63% 8 1288 297 62%
c v  1.41  0 37 0 25 10181 6 84024 14405 63% 8 1288 297 62%
c -  1.47  0 37 0 26 10400 6 86129 12438 63% 8 1288 297 62%
c -  1.56  0 37 0 27 10828 6 91228 13121 63% 8 1288 297 62%
c e  1.60  0 36 0 27 11047 6 93324 15012 63% 8 1378 254 53%
c -  1.66  0 36 0 28 11193 6 96432 8382 63% 8 1378 254 53%
c 3  1.69  0 36 0 28 11301 6 99453 10965 63% 8 1378 254 53%
c u  1.70  0 36 0 28 11301 6 99776 10785 63% 8 1378 254 53%
c v  1.71  0 36 0 28 11301 6 100059 10610 63% 8 1378 254 53%
c w  1.71  0 36 0 28 11301 6 100082 10610 63% 8 1377 254 53%
c -  1.74  0 36 0 29 11354 6 101723 9469 63% 8 1377 254 53%
c -  1.82  0 36 0 30 11632 6 107112 10874 63% 8 1377 254 53%
c
c  seconds  switched     rate            trail    variables
c         MB  reductions   conflicts        glue      remaining
c          level   restarts       redundant irredundant
c
c -  1.90  0 36 0 31 11954 5 112589 11933 63% 8 1377 254 53%
c 3  1.96  0 35 0 31 12202 5 117309 15954 63% 8 1377 254 53%
c u  1.97  0 35 0 31 12202 5 117576 15805 63% 8 1377 254 53%
c v  1.98  0 35 0 31 12202 5 117838 15707 63% 8 1377 254 53%
c -  2.00  0 35 0 32 12222 5 118157 12219 63% 8 1377 254 53%
c -  2.09  0 35 0 33 12466 5 123814 12857 63% 8 1377 254 53%
c -  2.18  0 35 0 34 12814 5 129558 13371 63% 8 1377 254 53%
c e  2.25  0 35 0 34 13049 5 134293 17442 62% 8 1375 253 53%
c e  2.25  0 35 0 34 13049 5 134293 17442 62% 8 1375 252 53%
c -  2.28  0 35 0 35 13109 5 135389 13957 62% 8 1375 252 53%
c 3  2.30  0 34 0 35 13184 5 136679 15059 62% 8 1375 252 53%
c u  2.31  0 34 0 35 13184 5 137021 14899 62% 8 1375 252 53%
c v  2.32  0 34 0 35 13184 5 137329 14731 62% 8 1375 252 53%
c w  2.32  0 34 0 35 13184 5 137359 14731 62% 8 1375 252 53%
c -  2.40  0 34 0 36 13415 5 141306 14069 62% 8 1375 252 53%
c -  2.51  0 34 0 37 13847 5 147307 14715 62% 8 1375 252 53%
c -  2.62  0 34 0 38 14281 4 153389 15328 61% 8 1375 252 53%
c 3  2.69  0 33 0 38 14594 4 157788 19058 61% 8 1375 252 53%
c u  2.70  0 33 0 38 14594 4 158158 18868 61% 8 1375 252 53%
c v  2.71  0 33 0 38 14594 4 158505 18684 61% 8 1375 252 53%
c
c  seconds  switched     rate            trail    variables
c         MB  reductions   conflicts        glue      remaining
c          level   restarts       redundant irredundant
c
c -  2.75  0 33 0 39 14673 4 159554 15213 61% 8 1375 252 53%
c -  2.87  0 33 0 40 15105 4 165798 15953 61% 8 1375 252 53%
c -  2.97  0 33 0 41 15440 4 172123 16779 60% 8 1375 252 53%
c -  3.11  0 33 0 42 16061 4 178527 17280 60% 8 1375 252 53%
c 3  3.14  0 33 0 42 16212 4 180605 19054 60% 8 1375 252 53%
c u  3.16  0 33 0 42 16212 4 181159 18816 60% 8 1375 252 53%
c v  3.17  0 33 0 42 16212 4 181572 18601 60% 8 1375 252 53%
c ^  3.22  0 32 0 42 16416 4 184369 20908 59% 8 1375 252 53%
c -  3.25  0 32 0 43 16470 4 185011 16794 59% 8 1375 252 53%
c -  3.36  0 32 0 44 16815 4 191568 17588 59% 8 1375 252 53%
c -  3.49  0 32 0 45 17246 4 198201 18359 59% 8 1375 252 53%
c -  3.62  0 31 0 46 17655 4 204910 19064 58% 8 1375 252 53%
c 3  3.63  0 31 0 46 17665 4 205341 19434 58% 8 1375 252 53%
c u  3.64  0 31 0 46 17665 4 205898 19246 58% 8 1375 252 53%
c v  3.65  0 31 0 46 17665 4 206261 19084 58% 8 1375 252 53%
c w  3.65  0 31 0 46 17665 4 206296 19084 58% 8 1375 252 53%
c -  3.76  0 31 0 47 17934 4 211692 18826 58% 8 1375 252 53%
c -  3.90  0 31 0 48 18418 4 218548 19396 57% 8 1375 252 53%
c -  4.04  0 31 0 49 18960 4 225477 19937 57% 8 1375 252 53%
c 3  4.15  0 30 0 49 19315 4 231717 25335 57% 8 1375 252 53%
c
c  seconds  switched     rate            trail    variables
c         MB  reductions   conflicts        glue      remaining
c          level   restarts       redundant irredundant
c
c u  4.17  0 30 0 49 19315 4 232257 25128 57% 8 1375 252 53%
c v  4.18  0 30 0 49 19315 4 232660 25056 57% 8 1375 252 53%
c -  4.20  0 30 0 50 19315 4 232696 19927 57% 8 1375 252 53%
c -  4.35  0 30 0 51 19812 4 239767 20612 57% 8 1375 252 53%
c e  4.42  0 30 0 51 19986 4 244135 24336 56% 8 1470 224 47%
c e  4.42  0 30 0 51 19986 4 244135 24336 56% 8 1469 222 47%
c -  4.48  0 30 0 52 20071 4 246908 12359 57% 8 1469 222 47%
c -  4.58  0 30 0 53 20313 4 254119 14422 57% 8 1469 222 47%
c u  4.68  0 30 0 53 20577 3 260243 19107 57% 8 1469 222 47%
c v  4.69  0 30 0 53 20577 3 260618 18923 57% 8 1469 222 47%
c w  4.69  0 30 0 53 20577 3 260651 18923 57% 8 1469 222 47%
c -  4.72  0 30 0 54 20657 4 261399 15319 57% 8 1469 222 47%
c -  4.85  0 30 0 55 21107 3 268747 16408 57% 8 1469 222 47%
c -  4.98  0 30 0 56 21558 3 276163 17525 57% 8 1469 222 47%
c -  5.11  0 30 0 57 21886 3 283646 18330 57% 8 1469 222 47%
c u  5.24  0 30 0 57 22318 3 290548 23396 57% 8 1469 222 47%
c v  5.25  0 30 0 57 22318 3 290904 23312 57% 8 1469 222 47%
c -  5.28  0 30 0 58 22346 3 291197 18165 57% 8 1469 222 47%
c -  5.44  0 30 0 59 22979 3 298814 18735 57% 8 1469 222 47%
c -  5.60  0 29 0 60 23583 3 306498 19459 56% 8 1469 222 47%
c
c  seconds  switched     rate            trail    variables
c         MB  reductions   conflicts        glue      remaining
c          level   restarts       redundant irredundant
c
c -  5.75  0 29 0 61 24075 3 314245 20233 56% 8 1469 222 47%
c ^  5.76  0 29 0 61 24139 3 315381 21149 56% 8 1469 222 47%
c -  5.90  0 29 0 62 24577 3 322055 20736 56% 8 1469 222 47%
c u  5.93  0 29 0 62 24585 3 322604 20508 56% 8 1469 222 47%
c v  5.94  0 29 0 62 24585 3 323126 20406 56% 8 1469 222 47%
c -  6.10  0 29 0 63 25023 3 329929 20441 56% 8 1469 222 47%
c -  6.26  0 29 0 64 25576 3 337866 21262 56% 8 1469 222 47%
c -  6.39  0 28 0 65 25796 3 345867 21853 55% 8 1469 222 47%
c -  6.55  0 28 0 66 26240 3 353932 22599 55% 8 1469 222 47%
c u  6.62  0 28 0 66 26447 3 356801 24176 55% 8 1469 222 47%
c v  6.63  0 28 0 66 26447 3 357271 24116 55% 8 1469 222 47%
c -  6.76  0 28 0 67 26789 3 362056 22297 55% 8 1469 222 47%
c -  6.93  0 28 0 68 27404 3 370243 22768 55% 8 1469 222 47%
c -  7.11  0 28 0 69 27984 3 378489 23510 54% 8 1469 222 47%
c -  7.30  0 28 0 70 28636 3 386795 24064 54% 8 1469 222 47%
c u  7.43  0 28 0 70 29022 3 392868 28158 54% 8 1469 222 47%
c v  7.45  0 28 0 70 29022 3 393442 28087 54% 8 1469 222 47%
c -  7.52  0 28 0 71 29175 3 395161 23640 54% 8 1469 222 47%
c e  7.56  0 28 0 71 29283 3 397539 25608 54% 8 1616 209 44%
c -  7.67  0 27 0 72 29486 3 403587 17519 54% 8 1616 209 44%
c
c  seconds  switched     rate            trail    variables
c         MB  reductions   conflicts        glue      remaining
c          level   restarts       redundant irredundant
c
c -  7.80  0 28 0 73 29856 3 412074 19422 54% 8 1616 209 44%
c -  7.97  0 28 0 74 30355 3 420619 20814 54% 8 1616 209 44%
c -  8.13  0 28 0 75 30864 3 429221 21905 55% 8 1616 209 44%
c u  8.17  0 28 0 75 30928 3 430655 22334 55% 8 1616 209 44%
c v  8.18  0 28 0 75 30928 3 431174 22283 55% 8 1616 209 44%
c w  8.19  0 28 0 75 30928 3 431212 22283 55% 8 1612 209 44%
c -  8.34  0 28 0 76 31425 3 437881 21761 55% 8 1612 209 44%
c -  8.50  0 28 0 77 31774 3 446598 22668 55% 8 1612 209 44%
c -  8.69  0 28 0 78 32423 3 455372 23463 55% 8 1612 209 44%
c -  8.88  0 28 0 79 32998 3 464205 23957 55% 8 1612 209 44%
c u  9.04  0 28 0 79 33406 3 471270 28883 55% 8 1612 209 44%
c v  9.05  0 28 0 79 33406 3 471733 28574 55% 8 1612 209 44%
c w  9.05  0 28 0 79 33406 3 471773 28574 55% 8 1610 209 44%
c -  9.12  0 28 0 80 33484 3 473095 23501 55% 8 1610 209 44%
c -  9.30  0 28 0 81 33990 3 482039 24133 54% 8 1610 209 44%
c -  9.49  0 27 0 82 34550 3 491039 24963 54% 8 1610 209 44%
c !  9.54  0 27 0 82 34692 3 493526 27063 54% 8 1610 209 44%
c -  9.69  0 27 0 83 35114 3 500094 25589 54% 8 1610 209 44%
c -  9.89  0 27 0 84 35739 3 509206 26217 54% 9 1610 209 44%
c u 10.00  0 27 0 84 36030 3 513814 29056 54% 9 1610 209 44%
c
c  seconds  switched     rate            trail    variables
c         MB  reductions   conflicts        glue      remaining
c          level   restarts       redundant irredundant
c
c v 10.02  0 27 0 84 36030 3 514524 28945 54% 9 1610 209 44%
c w 10.02  0 27 0 84 36030 3 514572 28945 54% 9 1610 209 44%
c - 10.14  0 27 0 85 36279 3 518372 25597 54% 9 1610 209 44%
c - 10.32  0 27 0 86 36575 3 527595 26338 54% 8 1610 209 44%
c - 10.52  0 27 0 87 37152 3 536869 27389 53% 8 1610 209 44%
c - 10.75  0 27 0 88 37979 3 546197 27703 53% 9 1610 209 44%
c - 10.95  0 27 0 89 38412 3 555577 28274 53% 8 1610 209 44%
c u 11.03  0 27 0 89 38572 3 558515 29932 53% 8 1610 209 44%
c v 11.05  0 27 0 89 38572 3 559237 29812 53% 8 1610 209 44%
c - 11.22  0 26 0 90 39013 3 565011 28096 53% 9 1610 209 44%
c - 11.43  0 26 0 91 39617 3 574497 28400 53% 9 1610 209 44%
c - 11.68  0 26 0 92 40223 3 584037 28964 52% 9 1610 209 44%
c - 11.89  0 26 0 93 40678 3 593631 29362 52% 9 1610 209 44%
c - 12.11  0 26 0 94 41281 3 603275 29814 52% 9 1610 209 44%
c u 12.16  0 26 0 94 41287 3 605147 30405 52% 9 1610 209 44%
c v 12.18  0 26 0 94 41287 3 605671 30028 52% 9 1610 209 44%
c - 12.36  0 26 0 95 41680 3 612970 29066 52% 9 1610 209 44%
c - 12.61  0 26 0 96 42452 3 622716 29753 52% 9 1610 209 44%
c - 12.81  0 26 0 97 42900 3 632514 30678 52% 9 1610 209 44%
c - 13.05  0 26 0 98 43589 3 642363 31153 51% 9 1610 209 44%
c
c  seconds  switched     rate            trail    variables
c         MB  reductions   conflicts        glue      remaining
c          level   restarts       redundant irredundant
c
c - 13.29  0 26 0 99 44317 3 652263 31504 51% 9 1610 209 44%
c u 13.34  0 26 0 99 44335 3 653865 31559 51% 9 1610 209 44%
c v 13.37  0 26 0 99 44335 3 654628 31453 51% 9 1610 209 44%
c - 13.57  0 26 0 100 44777 3 662215 30700 51% 9 1610 209 44%
c - 13.78  0 25 0 101 45218 3 672215 31450 51% 9 1610 209 44%
c - 14.01  0 25 0 102 45792 3 682267 32295 50% 9 1610 209 44%
c - 14.25  0 25 0 103 46451 3 692366 32748 50% 9 1610 209 44%
c - 14.49  0 25 0 104 47060 3 702516 33392 50% 9 1610 209 44%
c u 14.56  0 25 0 104 47128 3 704662 34023 50% 9 1610 209 44%
c v 14.58  0 25 0 104 47128 3 705350 33966 50% 9 1610 209 44%
c - 14.77  0 25 0 105 47527 3 712714 32720 50% 9 1610 209 44%
c - 15.02  0 25 0 106 48206 3 722960 33459 50% 9 1610 209 44%
c - 15.27  0 25 0 107 48936 3 733256 34327 49% 9 1610 209 44%
c - 15.52  0 25 0 108 49497 3 743600 34946 49% 9 1610 209 44%
c - 15.76  0 25 0 109 50036 3 753992 35331 49% 9 1610 209 44%
c u 15.86  0 25 0 109 50176 3 757403 37094 49% 9 1610 209 44%
c v 15.89  0 25 0 109 50176 3 758119 36999 49% 9 1610 209 44%
c - 16.09  0 25 0 110 50734 3 764434 34340 49% 9 1610 209 44%
c - 16.32  0 24 0 111 51208 3 774922 35045 49% 9 1610 209 44%
c - 16.57  0 24 0 112 51905 3 785457 36046 48% 9 1610 209 44%
c
c  seconds  switched      rate            trail    variables
c         MB  reductions    conflicts        glue      remaining
c          level    restarts       redundant irredundant
c
c - 16.84  0 24 0 113 52626 3 796040 36460 48% 9 1610 209 44%
c - 17.10  0 24 0 114 53239 3 806672 36836 48% 9 1610 209 44%
c u 17.24  0 24 0 114 53484 3 812107 40076 48% 9 1610 209 44%
c v 17.27  0 24 0 114 53484 3 812638 39856 48% 9 1610 209 44%
c - 17.43  0 24 0 115 53768 3 817350 35986 48% 9 1610 209 44%
c - 17.69  0 24 0 116 54422 3 828073 36509 48% 9 1610 209 44%
c - 17.95  0 24 0 117 55095 3 838844 37667 48% 9 1610 209 44%
c - 18.22  0 24 0 118 55775 3 849660 38148 48% 9 1610 209 44%
c - 18.52  0 24 0 119 56653 3 860526 38288 47% 9 1610 209 44%
c u 18.74  0 24 0 119 57059 3 868881 43805 47% 9 1610 209 44%
c v 18.76  0 24 0 119 57059 3 869563 43462 47% 9 1610 209 44%
c - 18.86  0 24 0 120 57225 3 871434 37270 47% 9 1610 209 44%
c - 19.12  0 24 0 121 57815 3 882389 38125 47% 9 1610 209 44%
c - 19.39  0 24 0 122 58423 3 893389 39053 47% 9 1610 209 44%
c - 19.68  0 24 0 123 59199 3 904435 39829 47% 9 1610 209 44%
c - 19.97  0 24 0 124 59911 3 915525 40076 47% 9 1610 209 44%
c - 20.25  0 24 0 125 60509 3 926661 40740 47% 9 1610 209 44%
c u 20.31  0 24 0 125 60530 3 927823 40506 47% 9 1610 209 44%
c v 20.34  0 24 0 125 60530 3 928465 40337 47% 9 1610 209 44%
c - 20.59  0 24 0 126 61070 3 937841 39634 47% 9 1610 209 44%
c
c  seconds  switched      rate            trail    variables
c         MB  reductions    conflicts        glue      remaining
c          level    restarts       redundant irredundant
c
c - 20.89  0 24 0 127 61877 3 949066 40066 46% 9 1610 209 44%
c - 21.22  0 24 0 128 62893 3 960335 40616 46% 9 1610 209 44%
c - 21.53  0 24 0 129 63600 3 971649 41280 46% 9 1610 209 44%
c - 21.85  0 23 0 130 64369 3 983007 41975 46% 9 1610 209 44%
c u 22.03  0 23 0 130 64636 3 988713 45372 46% 9 1610 209 44%
c v 22.06  0 23 0 130 64636 3 989244 44969 46% 9 1610 209 44%
c - 22.24  0 23 0 131 65036 3 994412 41235 46% 9 1610 209 44%
c - 22.54  0 23 0 132 65827 3 1005857 41599 46% 9 1610 209 44%
c - 22.86  0 23 0 133 66576 3 1017346 42233 45% 9 1610 209 44%
c - 23.17  0 23 0 134 67338 3 1028879 42583 45% 9 1610 209 44%
c - 23.46  0 23 0 135 67989 3 1040455 43189 45% 9 1610 209 44%
c u 23.77  0 23 0 135 68654 3 1051630 50623 45% 9 1610 209 44%
c v 23.80  0 23 0 135 68654 3 1052401 50318 45% 9 1610 209 44%
c - 23.85  0 23 0 136 68654 3 1052457 42233 45% 9 1610 209 44%
c - 24.20  0 23 0 137 69673 3 1064118 42185 45% 9 1610 209 44%
c - 24.52  0 23 0 138 70534 3 1075822 42721 45% 9 1610 209 44%
c - 24.84  0 23 0 139 71394 3 1087573 43533 45% 9 1610 209 44%
c - 25.12  0 23 0 140 71920 3 1099362 44141 45% 9 1610 209 44%
c - 25.46  0 23 0 141 72814 3 1111195 44650 45% 9 1610 209 44%
c u 25.62  0 23 0 141 73010 3 1116886 47884 45% 9 1610 209 44%
c
c  seconds  switched      rate             trail    variables
c         MB  reductions     conflicts        glue      remaining
c          level    restarts        redundant irredundant
c
c v 25.66  0 23 0 141 73010 3 1117679 47769 45% 9 1610 209 44%
c - 25.86  0 23 0 142 73499 3 1123069 43747 44% 9 1610 209 44%
c - 26.18  0 23 0 143 74303 3 1134987 44242 45% 9 1610 209 44%
c - 26.52  0 23 0 144 75196 3 1146945 44961 45% 9 1610 209 44%
c - 26.84  0 23 0 145 75917 3 1158946 45626 44% 9 1610 209 44%
c - 27.17  0 23 0 146 76650 3 1170988 46240 44% 9 1610 209 44%
c - 27.52  0 23 0 147 77248 3 1183074 46842 45% 9 1610 209 44%
c u 27.59  0 23 0 147 77248 3 1184231 46486 45% 9 1610 209 44%
c v 27.63  0 23 0 147 77248 3 1185041 45853 45% 9 1610 209 44%
c - 27.96  0 23 0 148 77952 3 1195198 44866 44% 9 1610 209 44%
c - 28.27  0 23 0 149 78511 3 1207366 45229 44% 9 1610 209 44%
c - 28.57  0 23 0 150 79044 3 1219573 46596 44% 9 1610 209 44%
c - 28.91  0 22 0 151 79839 3 1231820 47455 44% 9 1610 209 44%
c - 29.25  0 22 0 152 80565 3 1244109 47865 44% 9 1610 209 44%
c u 29.52  0 22 0 152 80980 3 1253848 54057 44% 9 1610 209 44%
c v 29.56  0 22 0 152 80980 3 1254634 53952 44% 9 1610 209 44%
c - 29.67  0 22 0 153 81227 3 1256441 46743 44% 9 1610 209 44%
c - 30.00  0 22 0 154 81920 3 1268812 47286 44% 9 1610 209 44%
c - 30.37  0 22 0 155 82930 3 1281222 48464 43% 9 1610 209 44%
c - 30.75  0 22 0 156 84000 3 1293671 48507 43% 9 1610 209 44%
c
c  seconds  switched      rate             trail    variables
c         MB  reductions     conflicts        glue      remaining
c          level    restarts        redundant irredundant
c
c - 31.11  0 22 0 157 84853 3 1306162 48801 43% 9 1610 209 44%
c - 31.51  0 22 0 158 85954 3 1318693 49197 43% 9 1610 209 44%
c u 31.72  0 22 0 158 86293 3 1325541 53275 43% 9 1610 209 44%
c v 31.76  0 22 0 158 86293 3 1326414 52979 43% 9 1610 209 44%
c - 31.95  0 22 0 159 86615 3 1331263 47944 43% 9 1610 209 44%
c - 32.30  0 22 0 160 87349 3 1343875 48560 43% 9 1610 209 44%
c - 32.62  0 22 0 161 87871 3 1356525 50046 43% 9 1610 209 44%
c - 32.98  0 22 0 162 88584 3 1369213 50721 43% 9 1610 209 44%
c - 33.30  0 21 0 163 89128 3 1381940 50858 43% 9 1610 209 44%
c - 33.73  0 22 0 164 90299 3 1394709 51159 43% 9 1610 209 44%
c u 33.89  0 22 0 164 90464 3 1399136 53518 43% 9 1610 209 44%
c v 33.93  0 22 0 164 90464 3 1400033 53402 43% 9 1610 209 44%
c - 34.18  0 21 0 165 90912 3 1407515 50271 43% 9 1610 209 44%
c - 34.58  0 21 0 166 92035 3 1420360 50661 42% 9 1610 209 44%
c - 34.98  0 21 0 167 93150 3 1433247 51026 42% 9 1610 209 44%
c - 35.31  0 21 0 168 93713 3 1446170 51629 42% 9 1610 209 44%
c - 35.65  0 21 0 169 94312 3 1459132 52493 42% 9 1610 209 44%
c - 35.99  0 21 0 170 94892 3 1472133 52755 42% 9 1610 209 44%
c u 36.11  0 21 0 170 94958 3 1475162 53535 42% 9 1610 209 44%
c v 36.16  0 21 0 170 94958 3 1476079 53441 42% 9 1610 209 44%
c
c  seconds  switched      rate             trail    variables
c         MB  reductions     conflicts        glue      remaining
c          level    restarts        redundant irredundant
c
c - 36.44  0 21 0 171 95280 3 1485172 51837 42% 9 1610 209 44%
c - 36.85  0 21 0 172 96213 3 1498248 52334 41% 9 1610 209 44%
c - 37.24  0 21 0 173 97023 3 1511363 52861 41% 9 1610 209 44%
c - 37.64  0 21 0 174 97935 3 1524516 53297 41% 9 1610 209 44%
c - 38.03  0 21 0 175 98716 3 1537710 53829 41% 9 1610 209 44%
c - 38.47  0 21 0 176 99973 3 1550938 54312 41% 9 1610 209 44%
c u 38.57  0 21 0 176 99973 3 1553357 54911 41% 9 1610 209 44%
c v 38.62  0 21 0 176 99973 3 1554442 54472 41% 9 1610 209 44%
c - 38.94  0 21 0 177 100504 3 1564204 52760 41% 9 1610 209 44%
c - 39.29  0 21 0 178 101065 3 1577508 53983 41% 9 1610 209 44%
c - 39.62  0 21 0 179 101557 3 1590849 54926 41% 9 1610 209 44%
c - 40.07  0 21 0 180 102497 3 1604231 55103 41% 9 1610 209 44%
c - 40.46  0 21 0 181 103235 3 1617647 55355 40% 9 1610 209 44%
c - 40.91  0 21 0 182 104235 3 1631100 55614 40% 9 1610 209 44%
c u 41.04  0 21 0 182 104333 3 1634063 56367 40% 9 1610 209 44%
c v 41.09  0 21 0 182 104333 3 1635025 56088 40% 9 1610 209 44%
c - 41.42  0 21 0 183 104831 3 1644590 54287 40% 9 1610 209 44%
c - 41.80  0 21 0 184 105416 3 1658118 55354 40% 9 1610 209 44%
c - 42.22  0 21 0 185 106294 3 1671682 56202 40% 9 1610 209 44%
c - 42.62  0 21 0 186 107099 3 1685283 56881 40% 9 1610 209 44%
c
c  seconds  switched       rate             trail    variables
c         MB  reductions      conflicts        glue      remaining
c          level     restarts        redundant irredundant
c
c - 43.05  0 21 0 187 107884 3 1698922 57309 40% 9 1610 209 44%
c - 43.43  0 20 0 188 108496 3 1712596 57859 40% 9 1610 209 44%
c u 43.59  0 20 0 188 108587 3 1717050 59363 40% 9 1610 209 44%
c v 43.64  0 20 0 188 108587 3 1717524 59062 40% 9 1610 209 44%
c - 43.91  0 21 0 189 108842 2 1726307 56335 40% 9 1610 209 44%
c - 44.40  0 21 0 190 109951 3 1740054 56630 40% 9 1610 209 44%
c - 44.85  0 21 0 191 110777 3 1753838 57277 40% 9 1610 209 44%
c - 45.30  0 21 0 192 111657 3 1767658 58257 39% 9 1610 209 44%
c - 45.76  0 21 0 193 112610 3 1781514 58555 39% 9 1610 209 44%
c - 46.15  0 21 0 194 113143 3 1795407 58569 39% 9 1610 209 44%
c u 46.40  0 21 0 194 113488 3 1801613 61778 39% 9 1610 209 44%
c v 46.45  0 21 0 194 113488 3 1802504 61497 39% 9 1610 209 44%
c - 46.70  0 21 0 195 113847 3 1809335 57248 39% 9 1610 209 44%
c - 47.07  0 21 0 196 114264 2 1823301 58696 40% 9 1610 209 44%
c - 47.53  0 21 0 197 115101 2 1837301 60033 40% 9 1610 209 44%
c - 47.96  0 21 0 198 115838 2 1851336 60011 40% 9 1610 209 44%
c - 48.42  0 21 0 199 116715 2 1865408 60177 39% 9 1610 209 44%
c - 48.91  0 21 0 200 117696 2 1879514 60795 39% 9 1610 209 44%
c u 49.22  0 21 0 200 117963 2 1888428 66490 39% 9 1610 209 44%
c v 49.27  0 21 0 200 117963 2 1889282 65754 39% 9 1610 209 44%
c
c  seconds  switched       rate             trail    variables
c         MB  reductions      conflicts        glue      remaining
c          level     restarts        redundant irredundant
c
c - 49.46  0 21 0 201 118212 2 1893657 59335 39% 9 1610 209 44%
c - 49.85  0 21 0 202 118727 2 1907834 59853 39% 9 1610 209 44%
c - 50.27  0 20 0 203 119357 2 1922048 60920 39% 9 1610 209 44%
c - 50.73  0 20 0 204 120266 2 1936297 61336 39% 9 1610 209 44%
c - 51.22  0 20 0 205 121150 2 1950580 61707 39% 9 1610 209 44%
c - 51.67  0 20 0 206 121730 2 1964897 62376 39% 9 1610 209 44%
c u 52.10  0 20 0 206 122262 2 1977533 70734 39% 9 1610 209 44%
c v 52.15  0 20 0 206 122262 2 1978065 70452 39% 9 1610 209 44%
c - 52.25  0 20 0 207 122309 2 1979249 61224 39% 9 1610 209 44%
c - 52.73  0 20 0 208 123319 2 1993636 61313 39% 9 1610 209 44%
c - 53.16  0 20 0 209 123988 2 2008061 62550 39% 9 1610 209 44%
c - 53.65  0 20 0 210 124969 2 2022517 63398 39% 9 1610 209 44%
c - 54.15  0 20 0 211 125961 2 2037008 63420 39% 9 1610 209 44%
c - 54.64  0 20 0 212 126880 2 2051535 63393 39% 9 1610 209 44%
c - 55.09  0 20 0 213 127559 2 2066095 63899 38% 9 1610 209 44%
c u 55.24  0 20 0 213 127657 2 2068779 63663 38% 9 1610 209 44%
c v 55.30  0 20 0 213 127657 2 2070345 62443 38% 9 1610 209 44%
c - 55.67  0 20 0 214 128261 2 2080689 60765 38% 9 1610 209 44%
c - 56.09  0 20 0 215 128909 2 2095320 61677 39% 9 1610 209 44%
c - 56.55  0 20 0 216 129717 2 2109983 62771 39% 9 1610 209 44%
c
c  seconds  switched       rate             trail    variables
c         MB  reductions      conflicts        glue      remaining
c          level     restarts        redundant irredundant
c
c - 57.03  0 20 0 217 130468 2 2124679 63567 38% 9 1610 209 44%
c - 57.50  0 20 0 218 131198 2 2139410 64334 38% 9 1610 209 44%
c - 57.97  0 20 0 219 131763 2 2154174 64564 38% 9 1610 209 44%
c u 58.27  0 20 0 219 131986 2 2163068 69830 38% 9 1610 209 44%
c v 58.33  0 20 0 219 131986 2 2163611 69592 38% 9 1610 209 44%
c - 58.53  0 20 0 220 132118 2 2168972 63670 38% 9 1610 209 44%
c - 58.98  0 20 0 221 132758 2 2183804 64555 38% 9 1610 209 44%
c - 59.42  0 19 0 222 133375 2 2198672 65590 38% 9 1610 209 44%
c - 59.94  0 19 0 223 134224 2 2213572 66505 38% 9 1610 209 44%
c - 60.42  0 19 0 224 134894 2 2228505 66487 38% 9 1610 209 44%
c - 60.89  0 19 0 225 135579 2 2243471 67277 37% 9 1610 209 44%
c u 61.46  0 19 0 225 136415 2 2258590 77465 38% 9 1610 209 44%
c v 61.52  0 19 0 225 136415 2 2259242 77136 38% 9 1610 209 44%
c - 61.58  0 19 0 226 136415 2 2259302 66345 38% 9 1610 209 44%
c - 62.08  0 19 0 227 137382 2 2274336 66411 37% 9 1610 209 44%
c - 62.54  0 19 0 228 138022 2 2289402 66927 37% 9 1610 209 44%
c - 63.01  0 19 0 229 138793 2 2304501 67488 37% 9 1610 209 44%
c - 63.53  0 19 0 230 139642 2 2319636 68282 37% 9 1610 209 44%
c - 64.01  0 19 0 231 140361 2 2334802 68922 37% 9 1610 209 44%
c - 64.51  0 19 0 232 141174 2 2350001 69093 37% 9 1610 209 44%
c
c  seconds  switched       rate             trail    variables
c         MB  reductions      conflicts        glue      remaining
c          level     restarts        redundant irredundant
c
c u 64.82  0 19 0 232 141553 2 2356438 72543 37% 9 1610 209 44%
c v 64.88  0 19 0 232 141553 2 2356845 72153 37% 9 1610 209 44%
c - 65.17  0 19 0 233 141884 2 2365232 67568 36% 9 1610 209 44%
c - 65.67  0 19 0 234 142787 2 2380497 67937 36% 9 1610 209 44%
c - 66.16  0 19 0 235 143498 2 2395794 69030 36% 9 1610 209 44%
c - 66.65  0 19 0 236 144209 2 2411126 69702 36% 9 1610 209 44%
c - 67.13  0 18 0 237 144855 2 2426489 70505 36% 9 1610 209 44%
c - 67.65  0 18 0 238 145649 2 2441883 71302 36% 9 1610 209 44%
c u 68.19  0 18 0 238 146275 2 2456195 80475 35% 9 1610 209 44%
c v 68.25  0 18 0 238 146275 2 2456891 80076 35% 9 1610 209 44%
c - 68.34  0 18 0 239 146324 2 2457310 70123 35% 9 1610 209 44%
c - 68.82  0 18 0 240 146981 2 2472770 70816 35% 9 1610 209 44%
c - 69.30  0 18 0 241 147606 2 2488262 72020 35% 8 1610 209 44%
c - 69.85  0 18 0 242 148529 2 2503787 72701 34% 8 1610 209 44%
c - 70.38  0 18 0 243 149281 2 2519344 73144 34% 8 1610 209 44%
c - 70.89  0 18 0 244 149870 2 2534932 74129 34% 8 1610 209 44%
c - 71.40  0 18 0 245 150410 2 2550553 74745 34% 8 1610 209 44%
c u 71.74  0 18 0 245 150677 2 2558930 79106 34% 8 1610 209 44%
c v 71.81  0 18 0 245 150677 2 2559705 78766 34% 8 1610 209 44%
c - 72.10  0 18 0 246 151046 2 2566207 73042 34% 8 1610 209 44%
c
c  seconds  switched       rate             trail    variables
c         MB  reductions      conflicts        glue      remaining
c          level     restarts        redundant irredundant
c
c - 72.64  0 18 0 247 151973 2 2581893 73308 34% 8 1610 209 44%
c - 73.14  0 17 0 248 152476 2 2597609 74538 33% 8 1610 209 44%
c i 73.35  0 17 0 248 152647 2 2606207 79704 33% 8 1610 208 44%
c - 73.66  0 17 0 249 153250 2 2613357 68185 33% 8 1608 208 44%
c - 74.17  0 17 0 250 154073 2 2629136 70045 33% 8 1598 208 44%
c i 74.46  0 16 0 250 154425 2 2639826 77165 33% 8 1598 207 43%
c - 74.69  0 16 0 251 154719 2 2644948 65611 33% 8 1596 207 43%
c - 75.20  0 16 0 252 155452 2 2660791 67818 33% 8 1596 207 43%
c u 75.38  0 16 0 252 155567 2 2664180 67826 33% 8 1586 207 43%
c v 75.46  0 16 0 252 155567 2 2665146 67048 33% 8 1586 207 43%
c - 75.84  0 16 0 253 156034 2 2676666 66582 32% 8 1586 207 43%
c i 76.26  0 16 0 253 156629 2 2691759 76903 32% 8 1586 206 43%
c - 76.33  0 16 0 254 156667 2 2692571 63533 32% 8 1584 206 43%
c i 76.73  0 16 0 254 157005 2 2708119 73101 32% 8 1584 205 43%
c i 76.73  0 16 0 254 157005 2 2708167 73108 32% 8 1584 204 43%
c - 76.82  0 16 0 255 157014 2 2708508 53895 32% 8 1582 204 43%
c i 76.84  0 16 0 255 157014 2 2709628 54505 32% 8 1582 203 43%
c i 76.86  0 16 0 255 157014 2 2710548 55014 32% 8 1582 202 42%
c i 76.88  0 16 0 255 157014 2 2711083 55249 31% 8 1582 198 42%
c i 76.88  0 16 0 255 157014 2 2711339 55354 31% 8 1582 197 41%
c
c  seconds  switched       rate             trail    variables
c         MB  reductions      conflicts        glue      remaining
c          level     restarts        redundant irredundant
c
c i 76.88  0 16 0 255 157014 2 2711393 55370 31% 8 1582 194 41%
c i 76.88  0 16 0 255 157014 2 2711450 55393 31% 8 1582 193 40%
c i 76.88  0 16 0 255 157014 2 2711464 55399 31% 8 1582 192 40%
c i 76.88  0 16 0 255 157014 2 2711465 55399 31% 8 1582 187 39%
c } 76.88  0 16 0 255 157014 2 2711471 55402 31% 8 1582 177 37%
c 0 76.88  0 16 0 255 157014 2 2711471 55402 31% 8 1582 177 37%
c
c ---- [ result ] ------------------------------------------------------------
c
s UNSATISFIABLE
c
c ---- [ profiling ] ---------------------------------------------------------
c
c          71.53   93.04 %  search
c          71.53   93.04 %  focused
c           5.35    6.96 %  simplify
c           5.27    6.85 %  probe
c           5.13    6.67 %  reduce
c           4.29    5.58 %  vivify
c           0.73    0.95 %  sweep
c           0.19    0.24 %  substitute
c           0.08    0.11 %  eliminate
c           0.02    0.03 %  failed
c           0.02    0.03 %  transitive
c           0.01    0.02 %  ternary
c           0.00    0.00 %  subsume
c           0.00    0.00 %  backbone
c           0.00    0.00 %  parse
c =============================================
c          76.88  100.00 %  total
c
c ---- [ statistics ] --------------------------------------------------------
c
c clauses_learned:                    2469231               91 %  conflicts
c conflicts:                          2711471            35266.16 per second
c decisions:                          6945286                2.56 per conflict
c forward_strengthened:                   550                2 %  strengthened
c forward_subsumed:                       285                0 %  subsumed
c kitten_conflicts:                     70682                0.40 per solved
c kitten_decisions:                   5693567               32.19 per solved
c kitten_propagations:                9140076               51.68 per solved
c kitten_sat:                          171334               97 %  solved
c kitten_solved:                       176858 
c kitten_ticks:                      38700730                4.23 per propagation
c kitten_unknown:                          28                0 %  solved
c kitten_unsat:                          5496                3 %  solved
c literals_bumped:                  108079652               43.77 per clause
c literals_deduced:                  42864848               17.36 per clause
c literals_learned:                  36230332               14.67 per clause
c literals_minimized:                       0                0 %  deduced
c literals_minimize_shrunken:         3236468               49 %  shrunken
c literals_shrunken:                  6634530               15 %  deduced
c propagations:                      46872882           609642    per second
c reductions:                             255            10633    interval
c restarts:                            157014               17.27 interval
c restarts_reused_trails:               45522               29 %  restarts
c strengthened:                         28046               18 %  checks
c substituted:                              6                1 %  variables
c subsumption_checks:                  158001 
c subsumed:                            401077              254 %  checks
c sweep:                                   56            48419    interval
c sweep_completed:                         47                1    sweeps
c sweep_equivalences:                       0                0    variables
c sweep_sat:                           171149               99 %  sweep_solved
c sweep_solved:                        172805               98 %  kitten_solved
c sweep_units:                              0                0 %  variables
c sweep_unsat:                           1628                1 %  sweep_solved
c sweep_variables:                       9476             1987 %  variables
c
c ---- [ proof ] -------------------------------------------------------------
c
c proof_added:                        2634058               51 %  per line
c proof_bytes:                      339529902              324 MB 
c proof_deleted:                      2578633               49 %  per line
c
c ---- [ resources ] ---------------------------------------------------------
c
c maximum-resident-set-size:      33889976320 bytes      32320 MB
c process-time:                         1m 17s              76.88 seconds
c
c ---- [ shutting down ] -----------------------------------------------------
c
c exit 20
-rw-r--r--  1 bryant  staff  339529902 Mar 10 19:24 chess-016.drat
c parsing input formula with 476 variables and 1592 clauses
c finished parsing
c detected empty clause; start verification via backward checking
c 1431 of 1592 clauses in core                            
c 375060 of 2634059 lemmas in core using 4342990 resolution steps
c 0 RAT lemmas in core; 89872 redundant literals in core lemmas
s VERIFIED
c verification time: 27.413 seconds
